c WARNING: for repeatability, setting FPU to use double precision
d VARIABLES            211614       
d CONSTRAINTS          781872       
c ============================[ Problem Statistics ]=============================
c |                                                                             |
c |  Number of variables:        211614                                         |
c |  Number of clauses:          781872                                         |
c |  Parse time:                   0.14 s                                       |
c |                                                                             |
c ============================[ Search Statistics ]==============================
c | Conflicts |          ORIGINAL         |          LEARNT          | Progress |
c |           |    Vars  Clauses Literals |    Limit  Clauses Lit/Cl |          |
c ===============================================================================
c |       100 |  174549   687034  1725505 |   251912      100     40 | 17.515 % |
c |       250 |  174549   687034  1725505 |   277103      250     24 | 17.515 % |
c |       475 |  174549   687034  1725505 |   304814      475     29 | 17.515 % |
c |       812 |  174549   687034  1725505 |   335295      812     27 | 17.515 % |
c |      1318 |  174549   687034  1725505 |   368825     1318     30 | 17.515 % |
c |      2077 |  174549   687034  1725505 |   405707     2077     22 | 17.515 % |
c |      3216 |  174549   687034  1725505 |   446278     3216     18 | 17.515 % |
c |      4924 |  174549   687034  1725505 |   490906     4924     21 | 17.515 % |
c |      7486 |  174549   687034  1725505 |   539996     7486     38 | 17.515 % |
c |     11330 |  174549   687034  1725505 |   593996    11330     57 | 17.515 % |
c |     17096 |  174549   687034  1725505 |   653396    17096     91 | 17.515 % |
c |     25745 |  174549   687034  1725505 |   718735    25745     98 | 17.515 % |
c |     38719 |  174549   687034  1725505 |   790609    38719     94 | 17.515 % |
c |     58180 |  174549   687034  1725505 |   869670    58180     90 | 17.515 % |
c |     87372 |  174549   687034  1725505 |   956637    87372     97 | 17.515 % |
c |    131161 |  174549   687034  1725505 |  1052300   131161    103 | 17.515 % |
c |    196845 |  174549   687034  1725505 |  1157530   196845    115 | 17.515 % |
c |    295371 |  174549   687034  1725505 |  1273284   295371    131 | 17.515 % |
c |    443160 |  174549   687034  1725505 |  1400612   443160    135 | 17.515 % |
c |    664843 |  174549   687034  1725505 |  1540673   664843    145 | 17.515 % |
c |    997368 |  174549   687034  1725505 |  1694741   997368    149 | 17.515 % |
c |   1496156 |  174549   687034  1725505 |  1864215  1496156    161 | 17.515 % |
c ===============================================================================
c restarts              : 3576
c conflicts             : 1821429        (1015 /sec)
c decisions             : 7449474        (0.00 % random) (4151 /sec)
c propagations          : 4897037729     (2728714 /sec)
c conflict literals     : 293684312      (29.10 % deleted)
d RESTARTS             3576
d FAILURES             1821429      
d NODES                7449474      
d BACKTRACKS           7449474      
d PROPAGATIONS         4897037729   
d NOGOODSIZE           161.24 
d MEMORY               1612.00 
d TIME                 1794.63 

s UNKNOWN
